;; Mutation-Based Equivalence Benchmark
;; Source:     AutomatArk / instance00196.smt2
;; Mutations:  literal_char_inc
;; Status:     sat
;;
;; Original regex vs mutated regex
;; Equivalence check: unsat ⟺ L(R1) = L(R2)

(set-info :smt-lib-version 2.6)
(set-info :category "mutation")
(set-info :status sat)
(set-logic QF_S)


;; R1: original
;; R2: mutated (literal_char_inc)
(assert
  (not
    (=
      (re.++ ((_ re.loop 10 17) (re.union (str.to_re "i") (str.to_re "I") (str.to_re "o") (str.to_re "O") (str.to_re "q") (str.to_re "Q") (str.to_re "'") (str.to_re "-"))) (str.to_re "\u{a}"))
      (re.++ ((_ re.loop 10 17) (re.union (str.to_re "j") (str.to_re "I") (str.to_re "o") (str.to_re "O") (str.to_re "q") (str.to_re "Q") (str.to_re "'") (str.to_re "-"))) (str.to_re "\u{a}")))))

(check-sat)
(exit)
